-382.0 3.0 9.0 10.0 6.0 7.0 10.0 10.0 8.0 2.0 6.0 5.0 9.0 7.0 7.0 8.0 3.0 3.0 7.0 7.0 3.0 7.0 1.0 5.0 5.0 4.0 2.0 7.0 10.0 4.0 4.0 5.0 8.0 4.0 4.0 6.0 6.0 6.0 4.0 8.0 9.0 6.0 7.0 1.0 10.0 6.0 0.0 1.0 9.0 2.0 2.0 0.0 1.0 4.0 0.0 3.0 0.0 5.0 10.0 3.0 1.0 0.0 8.0 7.0 5.0 0.0 4.0 10.0 6.0 2.0 7.0 5.0 8.0 10.0 0.0 0.0 
3.0 -401.0 2.0 8.0 1.0 3.0 6.0 1.0 10.0 2.0 7.0 7.0 1.0 10.0 9.0 1.0 9.0 5.0 9.0 5.0 7.0 10.0 10.0 3.0 3.0 1.0 5.0 8.0 10.0 8.0 10.0 5.0 8.0 4.0 3.0 10.0 3.0 1.0 9.0 9.0 7.0 7.0 5.0 2.0 6.0 3.0 5.0 8.0 7.0 6.0 7.0 10.0 7.0 3.0 8.0 3.0 6.0 10.0 6.0 7.0 7.0 3.0 7.0 3.0 5.0 2.0 8.0 9.0 8.0 0.0 0.0 0.0 0.0 0.0 0.0 0.0 
9.0 2.0 -351.0 2.0 4.0 3.0 2.0 9.0 8.0 6.0 7.0 10.0 8.0 4.0 7.0 5.0 4.0 5.0 10.0 2.0 6.0 3.0 0.0 10.0 3.0 8.0 2.0 6.0 5.0 9.0 2.0 1.0 7.0 4.0 9.0 5.0 9.0 0.0 3.0 2.0 6.0 6.0 10.0 9.0 1.0 0.0 6.0 1.0 2.0 7.0 0.0 1.0 9.0 0.0 6.0 5.0 0.0 8.0 4.0 9.0 4.0 0.0 2.0 1.0 3.0 2.0 5.0 3.0 1.0 5.0 5.0 4.0 10.0 3.0 2.0 10.0 
10.0 8.0 2.0 -345.0 4.0 1.0 2.0 2.0 2.0 6.0 3.0 10.0 5.0 2.0 8.0 7.0 10.0 6.0 4.0 3.0 8.0 2.0 3.0 3.0 4.0 10.0 3.0 3.0 0.0 6.0 1.0 3.0 2.0 10.0 10.0 6.0 2.0 4.0 0.0 5.0 4.0 10.0 7.0 0.0 0.0 6.0 2.0 7.0 3.0 7.0 4.0 1.0 5.0 2.0 6.0 0.0 7.0 6.0 4.0 6.0 1.0 4.0 1.0 10.0 9.0 1.0 0.0 10.0 10.0 1.0 5.0 6.0 6.0 4.0 3.0 7.0 
6.0 1.0 4.0 4.0 -350.0 1.0 1.0 9.0 9.0 9.0 10.0 6.0 1.0 3.0 0.0 9.0 6.0 5.0 10.0 6.0 10.0 4.0 10.0 5.0 10.0 3.0 2.0 9.0 3.0 2.0 4.0 4.0 1.0 0.0 5.0 0.0 8.0 4.0 6.0 0.0 0.0 1.0 7.0 0.0 10.0 3.0 6.0 8.0 4.0 6.0 10.0 1.0 4.0 8.0 4.0 3.0 6.0 8.0 2.0 9.0 1.0 7.0 0.0 2.0 7.0 4.0 4.0 0.0 8.0 5.0 2.0 1.0 7.0 0.0 7.0 5.0 
7.0 3.0 3.0 1.0 1.0 -354.0 4.0 9.0 1.0 9.0 7.0 2.0 6.0 3.0 8.0 0.0 0.0 10.0 6.0 1.0 4.0 1.0 7.0 8.0 7.0 9.0 2.0 6.0 4.0 5.0 4.0 5.0 4.0 6.0 3.0 5.0 5.0 7.0 4.0 4.0 3.0 10.0 4.0 4.0 1.0 10.0 10.0 2.0 0.0 4.0 8.0 6.0 3.0 0.0 2.0 3.0 0.0 1.0 7.0 10.0 5.0 3.0 4.0 8.0 10.0 6.0 0.0 7.0 5.0 2.0 7.0 5.0 9.0 7.0 7.0 0.0 
10.0 6.0 2.0 2.0 1.0 4.0 -375.0 10.0 6.0 4.0 1.0 4.0 0.0 5.0 3.0 5.0 10.0 7.0 1.0 8.0 5.0 1.0 3.0 9.0 2.0 5.0 10.0 10.0 7.0 0.0 4.0 6.0 5.0 9.0 2.0 5.0 8.0 3.0 9.0 3.0 7.0 5.0 7.0 8.0 5.0 2.0 8.0 10.0 1.0 0.0 5.0 5.0 10.0 2.0 8.0 2.0 3.0 4.0 3.0 4.0 10.0 7.0 8.0 2.0 4.0 5.0 1.0 3.0 3.0 7.0 7.0 5.0 6.0 4.0 9.0 0.0 
10.0 1.0 9.0 2.0 9.0 9.0 10.0 -351.0 3.0 1.0 9.0 1.0 1.0 6.0 1.0 10.0 6.0 9.0 1.0 6.0 6.0 2.0 6.0 8.0 10.0 8.0 7.0 3.0 1.0 2.0 8.0 9.0 10.0 6.0 7.0 1.0 0.0 0.0 8.0 3.0 9.0 7.0 2.0 2.0 7.0 8.0 3.0 7.0 2.0 5.0 0.0 2.0 0.0 3.0 7.0 0.0 7.0 3.0 4.0 1.0 8.0 7.0 5.0 6.0 3.0 8.0 2.0 2.0 1.0 6.0 1.0 0.0 6.0 6.0 2.0 0.0 
8.0 10.0 8.0 2.0 9.0 1.0 6.0 3.0 -424.0 2.0 10.0 6.0 6.0 7.0 7.0 7.0 4.0 10.0 7.0 4.0 7.0 2.0 7.0 1.0 3.0 9.0 8.0 5.0 9.0 0.0 8.0 8.0 4.0 3.0 7.0 8.0 3.0 2.0 10.0 7.0 4.0 3.0 6.0 8.0 2.0 5.0 3.0 4.0 4.0 2.0 9.0 7.0 0.0 10.0 6.0 5.0 5.0 7.0 10.0 9.0 5.0 7.0 9.0 1.0 7.0 4.0 5.0 3.0 7.0 10.0 4.0 1.0 8.0 1.0 7.0 8.0 
2.0 2.0 6.0 6.0 9.0 9.0 4.0 1.0 2.0 -384.0 6.0 9.0 1.0 1.0 10.0 2.0 0.0 9.0 10.0 7.0 7.0 5.0 6.0 3.0 3.0 9.0 10.0 3.0 4.0 1.0 3.0 9.0 8.0 1.0 9.0 6.0 10.0 3.0 8.0 8.0 1.0 5.0 10.0 4.0 8.0 1.0 10.0 6.0 9.0 6.0 0.0 0.0 2.0 5.0 8.0 7.0 0.0 2.0 3.0 7.0 1.0 4.0 4.0 5.0 5.0 4.0 6.0 8.0 0.0 0.0 7.0 9.0 8.0 5.0 10.0 2.0 
6.0 7.0 7.0 3.0 10.0 7.0 1.0 9.0 10.0 6.0 -364.0 5.0 2.0 2.0 7.0 3.0 9.0 0.0 1.0 8.0 2.0 4.0 4.0 8.0 8.0 4.0 10.0 0.0 7.0 9.0 3.0 0.0 4.0 9.0 8.0 2.0 6.0 7.0 5.0 4.0 2.0 4.0 8.0 0.0 6.0 1.0 6.0 1.0 9.0 2.0 5.0 6.0 9.0 3.0 3.0 0.0 2.0 8.0 7.0 9.0 7.0 4.0 3.0 2.0 0.0 5.0 2.0 0.0 6.0 10.0 3.0 1.0 10.0 8.0 5.0 0.0 
5.0 7.0 10.0 10.0 6.0 2.0 4.0 1.0 6.0 9.0 5.0 -379.0 7.0 2.0 4.0 3.0 10.0 1.0 7.0 8.0 3.0 10.0 3.0 0.0 7.0 2.0 2.0 5.0 7.0 0.0 1.0 6.0 4.0 5.0 7.0 1.0 9.0 4.0 7.0 8.0 5.0 4.0 2.0 4.0 2.0 5.0 5.0 7.0 10.0 0.0 7.0 7.0 9.0 3.0 1.0 8.0 5.0 4.0 6.0 7.0 9.0 1.0 8.0 2.0 10.0 3.0 8.0 1.0 6.0 2.0 6.0 7.0 7.0 5.0 3.0 2.0 
9.0 1.0 8.0 5.0 1.0 6.0 0.0 1.0 6.0 1.0 2.0 7.0 -338.0 2.0 10.0 1.0 2.0 6.0 1.0 9.0 3.0 1.0 1.0 7.0 0.0 3.0 3.0 10.0 9.0 2.0 7.0 6.0 0.0 10.0 8.0 10.0 2.0 7.0 0.0 0.0 3.0 1.0 6.0 9.0 1.0 8.0 0.0 4.0 6.0 4.0 8.0 2.0 0.0 2.0 4.0 10.0 5.0 7.0 10.0 3.0 3.0 10.0 3.0 10.0 6.0 6.0 9.0 6.0 0.0 4.0 0.0 1.0 3.0 9.0 0.0 8.0 
7.0 10.0 4.0 2.0 3.0 3.0 5.0 6.0 7.0 1.0 2.0 2.0 2.0 -388.0 3.0 4.0 5.0 7.0 2.0 4.0 4.0 9.0 2.0 9.0 5.0 2.0 3.0 0.0 0.0 9.0 9.0 9.0 10.0 6.0 6.0 7.0 10.0 1.0 10.0 1.0 9.0 8.0 0.0 0.0 8.0 5.0 2.0 4.0 9.0 9.0 4.0 8.0 9.0 5.0 9.0 2.0 10.0 2.0 3.0 1.0 2.0 9.0 0.0 8.0 8.0 6.0 10.0 9.0 1.0 4.0 0.0 10.0 6.0 2.0 5.0 10.0 
7.0 9.0 7.0 8.0 0.0 8.0 3.0 1.0 7.0 10.0 7.0 4.0 10.0 3.0 -398.0 7.0 5.0 10.0 8.0 9.0 8.0 9.0 10.0 0.0 9.0 9.0 0.0 4.0 4.0 9.0 4.0 2.0 5.0 0.0 8.0 9.0 9.0 1.0 7.0 0.0 10.0 9.0 9.0 3.0 3.0 6.0 0.0 7.0 4.0 0.0 0.0 4.0 3.0 10.0 2.0 4.0 6.0 2.0 0.0 2.0 8.0 9.0 6.0 0.0 3.0 1.0 10.0 5.0 5.0 4.0 6.0 0.0 8.0 0.0 10.0 9.0 
8.0 1.0 5.0 7.0 9.0 0.0 5.0 10.0 7.0 2.0 3.0 3.0 1.0 4.0 7.0 -393.0 6.0 4.0 2.0 6.0 6.0 1.0 5.0 6.0 2.0 1.0 10.0 2.0 8.0 2.0 8.0 3.0 10.0 5.0 7.0 0.0 10.0 9.0 5.0 6.0 10.0 8.0 2.0 9.0 5.0 10.0 4.0 2.0 2.0 9.0 1.0 8.0 1.0 6.0 6.0 8.0 5.0 5.0 6.0 4.0 7.0 3.0 6.0 9.0 5.0 6.0 10.0 9.0 1.0 7.0 4.0 10.0 0.0 0.0 7.0 2.0 
3.0 9.0 4.0 10.0 6.0 0.0 10.0 6.0 4.0 0.0 9.0 10.0 2.0 5.0 5.0 6.0 -410.0 5.0 3.0 4.0 6.0 6.0 0.0 2.0 10.0 9.0 9.0 8.0 5.0 3.0 6.0 10.0 0.0 2.0 9.0 4.0 2.0 0.0 0.0 10.0 5.0 3.0 3.0 9.0 8.0 9.0 3.0 9.0 0.0 9.0 10.0 10.0 1.0 0.0 7.0 0.0 10.0 9.0 7.0 2.0 4.0 5.0 9.0 9.0 5.0 2.0 10.0 7.0 1.0 4.0 4.0 8.0 10.0 6.0 2.0 8.0 
3.0 5.0 5.0 6.0 5.0 10.0 7.0 9.0 10.0 9.0 0.0 1.0 6.0 7.0 10.0 4.0 5.0 -376.0 6.0 7.0 8.0 2.0 7.0 6.0 8.0 2.0 4.0 7.0 7.0 1.0 10.0 5.0 1.0 10.0 2.0 9.0 3.0 5.0 3.0 2.0 8.0 1.0 10.0 2.0 9.0 9.0 2.0 0.0 3.0 0.0 1.0 0.0 3.0 7.0 10.0 9.0 2.0 9.0 9.0 0.0 0.0 4.0 10.0 0.0 1.0 0.0 1.0 8.0 10.0 5.0 0.0 2.0 9.0 5.0 1.0 9.0 
7.0 9.0 10.0 4.0 10.0 6.0 1.0 1.0 7.0 10.0 1.0 7.0 1.0 2.0 8.0 2.0 3.0 6.0 -373.0 8.0 4.0 4.0 3.0 8.0 6.0 5.0 9.0 0.0 6.0 3.0 4.0 1.0 7.0 10.0 9.0 2.0 7.0 0.0 6.0 5.0 10.0 1.0 5.0 1.0 5.0 2.0 10.0 8.0 8.0 9.0 9.0 3.0 3.0 2.0 7.0 2.0 6.0 9.0 8.0 1.0 3.0 3.0 3.0 5.0 9.0 4.0 3.0 1.0 0.0 1.0 7.0 0.0 4.0 3.0 6.0 10.0 
7.0 5.0 2.0 3.0 6.0 1.0 8.0 6.0 4.0 7.0 8.0 8.0 9.0 4.0 9.0 6.0 4.0 7.0 8.0 -372.0 2.0 4.0 7.0 10.0 5.0 4.0 5.0 10.0 0.0 3.0 5.0 1.0 9.0 5.0 5.0 2.0 0.0 4.0 2.0 6.0 4.0 4.0 8.0 0.0 5.0 0.0 1.0 10.0 1.0 6.0 8.0 2.0 4.0 7.0 4.0 9.0 6.0 1.0 5.0 5.0 6.0 4.0 2.0 3.0 3.0 1.0 4.0 10.0 10.0 7.0 8.0 1.0 9.0 6.0 7.0 0.0 
3.0 7.0 6.0 8.0 10.0 4.0 5.0 6.0 7.0 7.0 2.0 3.0 3.0 4.0 8.0 6.0 6.0 8.0 4.0 2.0 -355.0 4.0 7.0 5.0 10.0 3.0 6.0 10.0 4.0 8.0 3.0 5.0 10.0 7.0 3.0 7.0 0.0 1.0 5.0 0.0 6.0 2.0 3.0 7.0 3.0 8.0 1.0 2.0 3.0 5.0 7.0 2.0 1.0 9.0 2.0 3.0 7.0 8.0 3.0 0.0 2.0 7.0 7.0 3.0 4.0 3.0 0.0 10.0 10.0 8.0 1.0 0.0 2.0 2.0 0.0 7.0 
7.0 10.0 3.0 2.0 4.0 1.0 1.0 2.0 2.0 5.0 4.0 10.0 1.0 9.0 9.0 1.0 6.0 2.0 4.0 4.0 4.0 -363.0 6.0 4.0 4.0 1.0 4.0 3.0 4.0 5.0 8.0 0.0 6.0 1.0 3.0 9.0 4.0 6.0 9.0 0.0 6.0 7.0 4.0 7.0 3.0 4.0 7.0 8.0 5.0 5.0 0.0 6.0 9.0 4.0 8.0 6.0 3.0 10.0 2.0 8.0 9.0 5.0 4.0 1.0 1.0 6.0 2.0 5.0 8.0 5.0 8.0 10.0 7.0 7.0 5.0 0.0 
1.0 10.0 0.0 3.0 10.0 7.0 3.0 6.0 7.0 6.0 4.0 3.0 1.0 2.0 10.0 5.0 0.0 7.0 3.0 7.0 7.0 6.0 -339.0 7.0 2.0 1.0 0.0 1.0 3.0 1.0 10.0 6.0 4.0 2.0 0.0 3.0 1.0 8.0 8.0 7.0 0.0 6.0 1.0 1.0 3.0 9.0 0.0 8.0 0.0 1.0 2.0 4.0 7.0 3.0 6.0 7.0 9.0 7.0 7.0 3.0 9.0 5.0 2.0 1.0 6.0 7.0 2.0 4.0 4.0 6.0 5.0 9.0 7.0 6.0 0.0 10.0 
5.0 3.0 10.0 3.0 5.0 8.0 9.0 8.0 1.0 3.0 8.0 0.0 7.0 9.0 0.0 6.0 2.0 6.0 8.0 10.0 5.0 4.0 7.0 -363.0 8.0 2.0 1.0 3.0 9.0 1.0 6.0 7.0 1.0 4.0 5.0 1.0 3.0 3.0 2.0 3.0 5.0 4.0 8.0 4.0 3.0 1.0 7.0 10.0 6.0 5.0 8.0 2.0 10.0 6.0 8.0 1.0 0.0 0.0 1.0 8.0 3.0 9.0 3.0 3.0 10.0 1.0 7.0 5.0 9.0 3.0 8.0 7.0 2.0 4.0 4.0 2.0 
5.0 3.0 3.0 4.0 10.0 7.0 2.0 10.0 3.0 3.0 8.0 7.0 0.0 5.0 9.0 2.0 10.0 8.0 6.0 5.0 10.0 4.0 2.0 8.0 -416.0 10.0 7.0 9.0 9.0 5.0 3.0 8.0 9.0 10.0 2.0 8.0 10.0 3.0 6.0 1.0 10.0 7.0 4.0 0.0 2.0 8.0 6.0 9.0 8.0 2.0 8.0 6.0 10.0 1.0 7.0 2.0 5.0 0.0 7.0 9.0 6.0 3.0 6.0 6.0 2.0 5.0 0.0 2.0 5.0 7.0 6.0 9.0 0.0 0.0 10.0 4.0 
4.0 1.0 8.0 10.0 3.0 9.0 5.0 8.0 9.0 9.0 4.0 2.0 3.0 2.0 9.0 1.0 9.0 2.0 5.0 4.0 3.0 1.0 1.0 2.0 10.0 -394.0 9.0 0.0 6.0 8.0 6.0 9.0 1.0 9.0 6.0 6.0 2.0 1.0 8.0 1.0 6.0 1.0 10.0 5.0 8.0 1.0 1.0 5.0 5.0 9.0 8.0 1.0 10.0 7.0 9.0 1.0 0.0 6.0 5.0 10.0 10.0 0.0 5.0 6.0 7.0 9.0 6.0 0.0 10.0 7.0 0.0 10.0 8.0 7.0 5.0 0.0 
2.0 5.0 2.0 3.0 2.0 2.0 10.0 7.0 8.0 10.0 10.0 2.0 3.0 3.0 0.0 10.0 9.0 4.0 9.0 5.0 6.0 4.0 0.0 1.0 7.0 9.0 -356.0 0.0 1.0 7.0 6.0 0.0 8.0 2.0 0.0 5.0 4.0 5.0 1.0 2.0 8.0 7.0 5.0 7.0 5.0 4.0 5.0 6.0 4.0 3.0 2.0 9.0 2.0 7.0 1.0 5.0 8.0 3.0 1.0 0.0 10.0 2.0 4.0 4.0 9.0 8.0 10.0 4.0 3.0 9.0 1.0 2.0 10.0 3.0 10.0 1.0 
7.0 8.0 6.0 3.0 9.0 6.0 10.0 3.0 5.0 3.0 0.0 5.0 10.0 0.0 4.0 2.0 8.0 7.0 0.0 10.0 10.0 3.0 1.0 3.0 9.0 0.0 0.0 -408.0 5.0 8.0 6.0 8.0 7.0 5.0 1.0 5.0 6.0 6.0 6.0 5.0 4.0 9.0 3.0 1.0 3.0 10.0 2.0 7.0 10.0 7.0 3.0 1.0 8.0 10.0 5.0 8.0 10.0 4.0 4.0 1.0 7.0 1.0 10.0 8.0 3.0 7.0 8.0 10.0 9.0 1.0 10.0 6.0 4.0 0.0 7.0 7.0 
10.0 10.0 5.0 0.0 3.0 4.0 7.0 1.0 9.0 4.0 7.0 7.0 9.0 0.0 4.0 8.0 5.0 7.0 6.0 0.0 4.0 4.0 3.0 9.0 9.0 6.0 1.0 5.0 -326.0 9.0 7.0 0.0 3.0 0.0 2.0 6.0 9.0 2.0 8.0 4.0 4.0 2.0 7.0 3.0 2.0 3.0 4.0 0.0 1.0 1.0 4.0 3.0 0.0 10.0 3.0 1.0 5.0 3.0 2.0 2.0 0.0 5.0 0.0 6.0 8.0 1.0 4.0 3.0 10.0 7.0 1.0 5.0 3.0 3.0 6.0 7.0 
4.0 8.0 9.0 6.0 2.0 5.0 0.0 2.0 0.0 1.0 9.0 0.0 2.0 9.0 9.0 2.0 3.0 1.0 3.0 3.0 8.0 5.0 1.0 1.0 5.0 8.0 7.0 8.0 9.0 -382.0 1.0 1.0 9.0 0.0 8.0 10.0 8.0 10.0 9.0 4.0 0.0 4.0 4.0 7.0 6.0 2.0 3.0 7.0 4.0 6.0 6.0 8.0 5.0 7.0 4.0 6.0 8.0 9.0 5.0 4.0 9.0 10.0 0.0 1.0 1.0 3.0 4.0 8.0 6.0 9.0 7.0 8.0 6.0 1.0 5.0 9.0 
4.0 10.0 2.0 1.0 4.0 4.0 4.0 8.0 8.0 3.0 3.0 1.0 7.0 9.0 4.0 8.0 6.0 10.0 4.0 5.0 3.0 8.0 10.0 6.0 3.0 6.0 6.0 6.0 7.0 1.0 -371.0 7.0 10.0 6.0 6.0 8.0 2.0 8.0 4.0 3.0 0.0 9.0 5.0 0.0 7.0 6.0 4.0 4.0 2.0 6.0 3.0 0.0 1.0 8.0 5.0 3.0 10.0 4.0 1.0 5.0 4.0 2.0 3.0 9.0 7.0 3.0 2.0 7.0 1.0 5.0 7.0 7.0 0.0 8.0 5.0 3.0 
5.0 5.0 1.0 3.0 4.0 5.0 6.0 9.0 8.0 9.0 0.0 6.0 6.0 9.0 2.0 3.0 10.0 5.0 1.0 1.0 5.0 0.0 6.0 7.0 8.0 9.0 0.0 8.0 0.0 1.0 7.0 -361.0 10.0 7.0 4.0 8.0 6.0 3.0 6.0 3.0 4.0 4.0 1.0 9.0 7.0 6.0 9.0 3.0 1.0 1.0 3.0 1.0 10.0 1.0 1.0 4.0 5.0 8.0 2.0 7.0 4.0 6.0 9.0 6.0 9.0 8.0 5.0 0.0 2.0 1.0 6.0 9.0 1.0 6.0 2.0 4.0 
8.0 8.0 7.0 2.0 1.0 4.0 5.0 10.0 4.0 8.0 4.0 4.0 0.0 10.0 5.0 10.0 0.0 1.0 7.0 9.0 10.0 6.0 4.0 1.0 9.0 1.0 8.0 7.0 3.0 9.0 10.0 10.0 -392.0 5.0 8.0 1.0 0.0 2.0 0.0 9.0 4.0 9.0 8.0 7.0 8.0 4.0 6.0 2.0 9.0 10.0 7.0 7.0 3.0 2.0 9.0 1.0 4.0 5.0 1.0 4.0 3.0 5.0 2.0 5.0 6.0 0.0 6.0 9.0 4.0 4.0 3.0 2.0 7.0 4.0 6.0 6.0 
4.0 4.0 4.0 10.0 0.0 6.0 9.0 6.0 3.0 1.0 9.0 5.0 10.0 6.0 0.0 5.0 2.0 10.0 10.0 5.0 7.0 1.0 2.0 4.0 10.0 9.0 2.0 5.0 0.0 0.0 6.0 7.0 5.0 -366.0 3.0 10.0 0.0 10.0 3.0 3.0 2.0 4.0 9.0 9.0 10.0 5.0 4.0 9.0 3.0 9.0 1.0 7.0 1.0 6.0 4.0 7.0 5.0 1.0 4.0 4.0 3.0 2.0 8.0 1.0 0.0 6.0 3.0 2.0 3.0 7.0 3.0 3.0 10.0 4.0 3.0 8.0 
4.0 3.0 9.0 10.0 5.0 3.0 2.0 7.0 7.0 9.0 8.0 7.0 8.0 6.0 8.0 7.0 9.0 2.0 9.0 5.0 3.0 3.0 0.0 5.0 2.0 6.0 0.0 1.0 2.0 8.0 6.0 4.0 8.0 3.0 -353.0 3.0 0.0 3.0 2.0 2.0 10.0 0.0 1.0 5.0 0.0 6.0 6.0 8.0 9.0 7.0 5.0 2.0 4.0 7.0 3.0 8.0 1.0 7.0 0.0 5.0 0.0 9.0 10.0 7.0 2.0 8.0 6.0 1.0 2.0 4.0 5.0 6.0 5.0 5.0 0.0 0.0 
6.0 10.0 5.0 6.0 0.0 5.0 5.0 1.0 8.0 6.0 2.0 1.0 10.0 7.0 9.0 0.0 4.0 9.0 2.0 2.0 7.0 9.0 3.0 1.0 8.0 6.0 5.0 5.0 6.0 10.0 8.0 8.0 1.0 10.0 3.0 -406.0 4.0 9.0 1.0 9.0 3.0 5.0 2.0 0.0 6.0 9.0 0.0 3.0 4.0 1.0 9.0 0.0 0.0 9.0 8.0 9.0 9.0 5.0 8.0 10.0 6.0 7.0 8.0 7.0 4.0 9.0 6.0 7.0 0.0 9.0 8.0 6.0 4.0 5.0 8.0 1.0 
6.0 3.0 9.0 2.0 8.0 5.0 8.0 0.0 3.0 10.0 6.0 9.0 2.0 10.0 9.0 10.0 2.0 3.0 7.0 0.0 0.0 4.0 1.0 3.0 10.0 2.0 4.0 6.0 9.0 8.0 2.0 6.0 0.0 0.0 0.0 4.0 -343.0 6.0 8.0 5.0 2.0 8.0 8.0 1.0 2.0 10.0 0.0 4.0 7.0 3.0 4.0 1.0 4.0 4.0 0.0 8.0 0.0 3.0 5.0 4.0 0.0 8.0 4.0 3.0 4.0 6.0 7.0 1.0 7.0 1.0 5.0 6.0 10.0 10.0 2.0 1.0 
6.0 1.0 0.0 4.0 4.0 7.0 3.0 0.0 2.0 3.0 7.0 4.0 7.0 1.0 1.0 9.0 0.0 5.0 0.0 4.0 1.0 6.0 8.0 3.0 3.0 1.0 5.0 6.0 2.0 10.0 8.0 3.0 2.0 10.0 3.0 9.0 6.0 -343.0 7.0 0.0 9.0 0.0 10.0 3.0 3.0 2.0 7.0 1.0 8.0 1.0 2.0 0.0 10.0 6.0 0.0 5.0 2.0 9.0 6.0 8.0 9.0 6.0 8.0 7.0 8.0 0.0 5.0 1.0 4.0 2.0 6.0 5.0 6.0 9.0 5.0 9.0 
4.0 9.0 3.0 0.0 6.0 4.0 9.0 8.0 10.0 8.0 5.0 7.0 0.0 10.0 7.0 5.0 0.0 3.0 6.0 2.0 5.0 9.0 8.0 2.0 6.0 8.0 1.0 6.0 8.0 9.0 4.0 6.0 0.0 3.0 2.0 1.0 8.0 7.0 -409.0 3.0 6.0 2.0 2.0 10.0 9.0 8.0 4.0 9.0 9.0 7.0 9.0 5.0 8.0 2.0 8.0 4.0 8.0 6.0 10.0 1.0 6.0 1.0 6.0 1.0 7.0 0.0 10.0 6.0 10.0 9.0 10.0 8.0 2.0 2.0 0.0 2.0 
8.0 9.0 2.0 5.0 0.0 4.0 3.0 3.0 7.0 8.0 4.0 8.0 0.0 1.0 0.0 6.0 10.0 2.0 5.0 6.0 0.0 0.0 7.0 3.0 1.0 1.0 2.0 5.0 4.0 4.0 3.0 3.0 9.0 3.0 2.0 9.0 5.0 0.0 3.0 -356.0 2.0 0.0 10.0 8.0 5.0 1.0 3.0 6.0 9.0 1.0 4.0 10.0 3.0 4.0 9.0 4.0 0.0 9.0 6.0 10.0 3.0 8.0 3.0 9.0 2.0 9.0 2.0 6.0 9.0 7.0 9.0 5.0 10.0 3.0 6.0 6.0 
9.0 7.0 6.0 4.0 0.0 3.0 7.0 9.0 4.0 1.0 2.0 5.0 3.0 9.0 10.0 10.0 5.0 8.0 10.0 4.0 6.0 6.0 0.0 5.0 10.0 6.0 8.0 4.0 4.0 0.0 0.0 4.0 4.0 2.0 10.0 3.0 2.0 9.0 6.0 2.0 -373.0 9.0 9.0 8.0 5.0 3.0 5.0 7.0 1.0 1.0 0.0 9.0 6.0 1.0 6.0 8.0 0.0 7.0 2.0 1.0 6.0 6.0 3.0 2.0 7.0 4.0 2.0 9.0 1.0 4.0 2.0 9.0 7.0 4.0 6.0 6.0 
6.0 7.0 6.0 10.0 1.0 10.0 5.0 7.0 3.0 5.0 4.0 4.0 1.0 8.0 9.0 8.0 3.0 1.0 1.0 4.0 2.0 7.0 6.0 4.0 7.0 1.0 7.0 9.0 2.0 4.0 9.0 4.0 9.0 4.0 0.0 5.0 8.0 0.0 2.0 0.0 9.0 -379.0 3.0 6.0 8.0 9.0 10.0 2.0 6.0 3.0 5.0 3.0 6.0 2.0 9.0 2.0 10.0 7.0 5.0 7.0 7.0 3.0 2.0 10.0 1.0 0.0 4.0 1.0 3.0 9.0 9.0 1.0 6.0 6.0 4.0 8.0 
7.0 5.0 10.0 7.0 7.0 4.0 7.0 2.0 6.0 10.0 8.0 2.0 6.0 0.0 9.0 2.0 3.0 10.0 5.0 8.0 3.0 4.0 1.0 8.0 4.0 10.0 5.0 3.0 7.0 4.0 5.0 1.0 8.0 9.0 1.0 2.0 8.0 10.0 2.0 10.0 9.0 3.0 -368.0 2.0 3.0 10.0 1.0 2.0 9.0 2.0 0.0 4.0 3.0 1.0 7.0 8.0 6.0 7.0 5.0 0.0 0.0 6.0 1.0 3.0 2.0 4.0 3.0 5.0 8.0 2.0 4.0 4.0 1.0 10.0 4.0 6.0 
1.0 2.0 9.0 0.0 0.0 4.0 8.0 2.0 8.0 4.0 0.0 4.0 9.0 0.0 3.0 9.0 9.0 2.0 1.0 0.0 7.0 7.0 1.0 4.0 0.0 5.0 7.0 1.0 3.0 7.0 0.0 9.0 7.0 9.0 5.0 0.0 1.0 3.0 10.0 8.0 8.0 6.0 2.0 -344.0 1.0 6.0 0.0 8.0 2.0 9.0 5.0 8.0 7.0 8.0 4.0 10.0 1.0 0.0 7.0 6.0 3.0 5.0 7.0 7.0 8.0 2.0 3.0 5.0 8.0 8.0 7.0 5.0 1.0 0.0 6.0 2.0 
10.0 6.0 1.0 0.0 10.0 1.0 5.0 7.0 2.0 8.0 6.0 2.0 1.0 8.0 3.0 5.0 8.0 9.0 5.0 5.0 3.0 3.0 3.0 3.0 2.0 8.0 5.0 3.0 2.0 6.0 7.0 7.0 8.0 10.0 0.0 6.0 2.0 3.0 9.0 5.0 5.0 8.0 3.0 1.0 -370.0 2.0 9.0 7.0 1.0 8.0 2.0 5.0 4.0 7.0 4.0 1.0 6.0 0.0 10.0 3.0 3.0 0.0 1.0 5.0 10.0 9.0 2.0 7.0 6.0 3.0 8.0 10.0 4.0 6.0 6.0 7.0 
6.0 3.0 0.0 6.0 3.0 10.0 2.0 8.0 5.0 1.0 1.0 5.0 8.0 5.0 6.0 10.0 9.0 9.0 2.0 0.0 8.0 4.0 9.0 1.0 8.0 1.0 4.0 10.0 3.0 2.0 6.0 6.0 4.0 5.0 6.0 9.0 10.0 2.0 8.0 1.0 3.0 9.0 10.0 6.0 2.0 -355.0 3.0 0.0 6.0 0.0 0.0 2.0 1.0 7.0 3.0 5.0 3.0 6.0 9.0 0.0 1.0 2.0 8.0 6.0 0.0 6.0 2.0 10.0 5.0 5.0 6.0 8.0 6.0 5.0 1.0 3.0 
0.0 5.0 6.0 2.0 6.0 10.0 8.0 3.0 3.0 10.0 6.0 5.0 0.0 2.0 0.0 4.0 3.0 2.0 10.0 1.0 1.0 7.0 0.0 7.0 6.0 1.0 5.0 2.0 4.0 3.0 4.0 9.0 6.0 4.0 6.0 0.0 0.0 7.0 4.0 3.0 5.0 10.0 1.0 0.0 9.0 3.0 -332.0 2.0 4.0 0.0 6.0 7.0 8.0 4.0 3.0 0.0 8.0 1.0 3.0 4.0 10.0 9.0 0.0 9.0 7.0 4.0 3.0 10.0 8.0 7.0 0.0 2.0 3.0 9.0 8.0 0.0 
1.0 8.0 1.0 7.0 8.0 2.0 10.0 7.0 4.0 6.0 1.0 7.0 4.0 4.0 7.0 2.0 9.0 0.0 8.0 10.0 2.0 8.0 8.0 10.0 9.0 5.0 6.0 7.0 0.0 7.0 4.0 3.0 2.0 9.0 8.0 3.0 4.0 1.0 9.0 6.0 7.0 2.0 2.0 8.0 7.0 0.0 2.0 -390.0 1.0 4.0 6.0 5.0 7.0 8.0 7.0 2.0 8.0 6.0 7.0 0.0 3.0 0.0 8.0 3.0 6.0 10.0 9.0 2.0 9.0 5.0 6.0 1.0 9.0 0.0 8.0 5.0 
9.0 7.0 2.0 3.0 4.0 0.0 1.0 2.0 4.0 9.0 9.0 10.0 6.0 9.0 4.0 2.0 0.0 3.0 8.0 1.0 3.0 5.0 0.0 6.0 8.0 5.0 4.0 10.0 1.0 4.0 2.0 1.0 9.0 3.0 9.0 4.0 7.0 8.0 9.0 9.0 1.0 6.0 9.0 2.0 1.0 6.0 4.0 1.0 -362.0 4.0 3.0 8.0 6.0 6.0 5.0 5.0 7.0 4.0 1.0 3.0 1.0 0.0 9.0 5.0 7.0 0.0 10.0 7.0 0.0 4.0 2.0 8.0 7.0 10.0 0.0 10.0 
2.0 6.0 7.0 7.0 6.0 4.0 0.0 5.0 2.0 6.0 2.0 0.0 4.0 9.0 0.0 9.0 9.0 0.0 9.0 6.0 5.0 5.0 1.0 5.0 2.0 9.0 3.0 7.0 1.0 6.0 6.0 1.0 10.0 9.0 7.0 1.0 3.0 1.0 7.0 1.0 1.0 3.0 2.0 9.0 8.0 0.0 0.0 4.0 4.0 -367.0 4.0 4.0 8.0 6.0 10.0 1.0 5.0 3.0 8.0 1.0 6.0 5.0 6.0 8.0 10.0 2.0 7.0 8.0 6.0 5.0 5.0 8.0 8.0 10.0 0.0 9.0 
2.0 7.0 0.0 4.0 10.0 8.0 5.0 0.0 9.0 0.0 5.0 7.0 8.0 4.0 0.0 1.0 10.0 1.0 9.0 8.0 7.0 0.0 2.0 8.0 8.0 8.0 2.0 3.0 4.0 6.0 3.0 3.0 7.0 1.0 5.0 9.0 4.0 2.0 9.0 4.0 0.0 5.0 0.0 5.0 2.0 0.0 6.0 6.0 3.0 4.0 -326.0 4.0 4.0 2.0 9.0 6.0 10.0 4.0 1.0 1.0 1.0 1.0 9.0 7.0 0.0 1.0 9.0 8.0 0.0 3.0 0.0 2.0 1.0 4.0 6.0 9.0 
0.0 10.0 1.0 1.0 1.0 6.0 5.0 2.0 7.0 0.0 6.0 7.0 2.0 8.0 4.0 8.0 10.0 0.0 3.0 2.0 2.0 6.0 4.0 2.0 6.0 1.0 9.0 1.0 3.0 8.0 0.0 1.0 7.0 7.0 2.0 0.0 1.0 0.0 5.0 10.0 9.0 3.0 4.0 8.0 5.0 2.0 7.0 5.0 8.0 4.0 4.0 -339.0 6.0 1.0 8.0 6.0 4.0 0.0 2.0 7.0 9.0 3.0 0.0 2.0 8.0 6.0 5.0 5.0 6.0 5.0 10.0 9.0 1.0 5.0 4.0 10.0 
1.0 7.0 9.0 5.0 4.0 3.0 10.0 0.0 0.0 2.0 9.0 9.0 0.0 9.0 3.0 1.0 1.0 3.0 3.0 4.0 1.0 9.0 7.0 10.0 10.0 10.0 2.0 8.0 0.0 5.0 1.0 10.0 3.0 1.0 4.0 0.0 4.0 10.0 8.0 3.0 6.0 6.0 3.0 7.0 4.0 1.0 8.0 7.0 6.0 8.0 4.0 6.0 -363.0 3.0 6.0 7.0 10.0 5.0 1.0 0.0 5.0 5.0 1.0 0.0 0.0 6.0 5.0 2.0 2.0 10.0 2.0 10.0 6.0 8.0 8.0 6.0 
4.0 3.0 0.0 2.0 8.0 0.0 2.0 3.0 10.0 5.0 3.0 3.0 2.0 5.0 10.0 6.0 0.0 7.0 2.0 7.0 9.0 4.0 3.0 6.0 1.0 7.0 7.0 10.0 10.0 7.0 8.0 1.0 2.0 6.0 7.0 9.0 4.0 6.0 2.0 4.0 1.0 2.0 1.0 8.0 7.0 7.0 4.0 8.0 6.0 6.0 2.0 1.0 3.0 -387.0 7.0 2.0 4.0 7.0 8.0 7.0 4.0 7.0 2.0 5.0 6.0 6.0 8.0 4.0 9.0 7.0 3.0 10.0 2.0 10.0 9.0 9.0 
0.0 8.0 6.0 6.0 4.0 2.0 8.0 7.0 6.0 8.0 3.0 1.0 4.0 9.0 2.0 6.0 7.0 10.0 7.0 4.0 2.0 8.0 6.0 8.0 7.0 9.0 1.0 5.0 3.0 4.0 5.0 1.0 9.0 4.0 3.0 8.0 0.0 0.0 8.0 9.0 6.0 9.0 7.0 4.0 4.0 3.0 3.0 7.0 5.0 10.0 9.0 8.0 6.0 7.0 -411.0 0.0 0.0 10.0 8.0 0.0 9.0 3.0 6.0 8.0 5.0 1.0 10.0 10.0 0.0 7.0 5.0 8.0 10.0 10.0 2.0 3.0 
3.0 3.0 5.0 0.0 3.0 3.0 2.0 0.0 5.0 7.0 0.0 8.0 10.0 2.0 4.0 8.0 0.0 9.0 2.0 9.0 3.0 6.0 7.0 1.0 2.0 1.0 5.0 8.0 1.0 6.0 3.0 4.0 1.0 7.0 8.0 9.0 8.0 5.0 4.0 4.0 8.0 2.0 8.0 10.0 1.0 5.0 0.0 2.0 5.0 1.0 6.0 6.0 7.0 2.0 0.0 -339.0 2.0 4.0 3.0 2.0 0.0 3.0 7.0 6.0 8.0 5.0 0.0 5.0 10.0 10.0 4.0 0.0 6.0 5.0 10.0 10.0 
0.0 6.0 0.0 7.0 6.0 0.0 3.0 7.0 5.0 0.0 2.0 5.0 5.0 10.0 6.0 5.0 10.0 2.0 6.0 6.0 7.0 3.0 9.0 0.0 5.0 0.0 8.0 10.0 5.0 8.0 10.0 5.0 4.0 5.0 1.0 9.0 0.0 2.0 8.0 0.0 0.0 10.0 6.0 1.0 6.0 3.0 8.0 8.0 7.0 5.0 10.0 4.0 10.0 4.0 0.0 2.0 -347.0 3.0 7.0 1.0 7.0 3.0 3.0 5.0 1.0 2.0 8.0 1.0 6.0 2.0 2.0 6.0 9.0 1.0 6.0 0.0 
5.0 10.0 8.0 6.0 8.0 1.0 4.0 3.0 7.0 2.0 8.0 4.0 7.0 2.0 2.0 5.0 9.0 9.0 9.0 1.0 8.0 10.0 7.0 0.0 0.0 6.0 3.0 4.0 3.0 9.0 4.0 8.0 5.0 1.0 7.0 5.0 3.0 9.0 6.0 9.0 7.0 7.0 7.0 0.0 0.0 6.0 1.0 6.0 4.0 3.0 4.0 0.0 5.0 7.0 10.0 4.0 3.0 -387.0 3.0 6.0 9.0 6.0 6.0 5.0 7.0 2.0 10.0 9.0 6.0 0.0 4.0 8.0 5.0 4.0 6.0 0.0 
10.0 6.0 4.0 4.0 2.0 7.0 3.0 4.0 10.0 3.0 7.0 6.0 10.0 3.0 0.0 6.0 7.0 9.0 8.0 5.0 3.0 2.0 7.0 1.0 7.0 5.0 1.0 4.0 2.0 5.0 1.0 2.0 1.0 4.0 0.0 8.0 5.0 6.0 10.0 6.0 2.0 5.0 5.0 7.0 10.0 9.0 3.0 7.0 1.0 8.0 1.0 2.0 1.0 8.0 8.0 3.0 7.0 3.0 -393.0 5.0 6.0 5.0 10.0 10.0 4.0 10.0 2.0 4.0 2.0 5.0 10.0 3.0 9.0 8.0 9.0 7.0 
3.0 7.0 9.0 6.0 9.0 10.0 4.0 1.0 9.0 7.0 9.0 7.0 3.0 1.0 2.0 4.0 2.0 0.0 1.0 5.0 0.0 8.0 3.0 8.0 9.0 10.0 0.0 1.0 2.0 4.0 5.0 7.0 4.0 4.0 5.0 10.0 4.0 8.0 1.0 10.0 1.0 7.0 0.0 6.0 3.0 0.0 4.0 0.0 3.0 1.0 1.0 7.0 0.0 7.0 0.0 2.0 1.0 6.0 5.0 -328.0 10.0 3.0 1.0 5.0 9.0 2.0 0.0 5.0 1.0 10.0 9.0 6.0 5.0 1.0 1.0 4.0 
1.0 7.0 4.0 1.0 1.0 5.0 10.0 8.0 5.0 1.0 7.0 9.0 3.0 2.0 8.0 7.0 4.0 0.0 3.0 6.0 2.0 9.0 9.0 3.0 6.0 10.0 10.0 7.0 0.0 9.0 4.0 4.0 3.0 3.0 0.0 6.0 0.0 9.0 6.0 3.0 6.0 7.0 0.0 3.0 3.0 1.0 10.0 3.0 1.0 6.0 1.0 9.0 5.0 4.0 9.0 0.0 7.0 9.0 6.0 10.0 -376.0 8.0 10.0 6.0 1.0 3.0 6.0 1.0 5.0 0.0 5.0 10.0 9.0 0.0 7.0 10.0 
0.0 3.0 0.0 4.0 7.0 3.0 7.0 7.0 7.0 4.0 4.0 1.0 10.0 9.0 9.0 3.0 5.0 4.0 3.0 4.0 7.0 5.0 5.0 9.0 3.0 0.0 2.0 1.0 5.0 10.0 2.0 6.0 5.0 2.0 9.0 7.0 8.0 6.0 1.0 8.0 6.0 3.0 6.0 5.0 0.0 2.0 9.0 0.0 0.0 5.0 1.0 3.0 5.0 7.0 3.0 3.0 3.0 6.0 5.0 3.0 8.0 -350.0 1.0 10.0 5.0 2.0 6.0 9.0 9.0 9.0 8.0 8.0 0.0 5.0 0.0 0.0 
8.0 7.0 2.0 1.0 0.0 4.0 8.0 5.0 9.0 4.0 3.0 8.0 3.0 0.0 6.0 6.0 9.0 10.0 3.0 2.0 7.0 4.0 2.0 3.0 6.0 5.0 4.0 10.0 0.0 0.0 3.0 9.0 2.0 8.0 10.0 8.0 4.0 8.0 6.0 3.0 3.0 2.0 1.0 7.0 1.0 8.0 0.0 8.0 9.0 6.0 9.0 0.0 1.0 2.0 6.0 7.0 3.0 6.0 10.0 1.0 10.0 1.0 -349.0 2.0 4.0 0.0 2.0 0.0 6.0 3.0 3.0 8.0 7.0 2.0 7.0 4.0 
7.0 3.0 1.0 10.0 2.0 8.0 2.0 6.0 1.0 5.0 2.0 2.0 10.0 8.0 0.0 9.0 9.0 0.0 5.0 3.0 3.0 1.0 1.0 3.0 6.0 6.0 4.0 8.0 6.0 1.0 9.0 6.0 5.0 1.0 7.0 7.0 3.0 7.0 1.0 9.0 2.0 10.0 3.0 7.0 5.0 6.0 9.0 3.0 5.0 8.0 7.0 2.0 0.0 5.0 8.0 6.0 5.0 5.0 10.0 5.0 6.0 10.0 2.0 -387.0 8.0 4.0 3.0 2.0 3.0 7.0 6.0 10.0 8.0 2.0 10.0 8.0 
5.0 5.0 3.0 9.0 7.0 10.0 4.0 3.0 7.0 5.0 0.0 10.0 6.0 8.0 3.0 5.0 5.0 1.0 9.0 3.0 4.0 1.0 6.0 10.0 2.0 7.0 9.0 3.0 8.0 1.0 7.0 9.0 6.0 0.0 2.0 4.0 4.0 8.0 7.0 2.0 7.0 1.0 2.0 8.0 10.0 0.0 7.0 6.0 7.0 10.0 0.0 8.0 0.0 6.0 5.0 8.0 1.0 7.0 4.0 9.0 1.0 5.0 4.0 8.0 -387.0 6.0 6.0 6.0 6.0 8.0 0.0 7.0 1.0 0.0 5.0 10.0 
0.0 2.0 2.0 1.0 4.0 6.0 5.0 8.0 4.0 4.0 5.0 3.0 6.0 6.0 1.0 6.0 2.0 0.0 4.0 1.0 3.0 6.0 7.0 1.0 5.0 9.0 8.0 7.0 1.0 3.0 3.0 8.0 0.0 6.0 8.0 9.0 6.0 0.0 0.0 9.0 4.0 0.0 4.0 2.0 9.0 6.0 4.0 10.0 0.0 2.0 1.0 6.0 6.0 6.0 1.0 5.0 2.0 2.0 10.0 2.0 3.0 2.0 0.0 4.0 6.0 -323.0 8.0 7.0 5.0 9.0 8.0 6.0 6.0 3.0 3.0 2.0 
4.0 8.0 5.0 0.0 4.0 0.0 1.0 2.0 5.0 6.0 2.0 8.0 9.0 10.0 10.0 10.0 10.0 1.0 3.0 4.0 0.0 2.0 2.0 7.0 0.0 6.0 10.0 8.0 4.0 4.0 2.0 5.0 6.0 3.0 6.0 6.0 7.0 5.0 10.0 2.0 2.0 4.0 3.0 3.0 2.0 2.0 3.0 9.0 10.0 7.0 9.0 5.0 5.0 8.0 10.0 0.0 8.0 10.0 2.0 0.0 6.0 6.0 2.0 3.0 6.0 8.0 -380.0 7.0 2.0 4.0 6.0 8.0 7.0 7.0 2.0 7.0 
10.0 9.0 3.0 10.0 0.0 7.0 3.0 2.0 3.0 8.0 0.0 1.0 6.0 9.0 5.0 9.0 7.0 8.0 1.0 10.0 10.0 5.0 4.0 5.0 2.0 0.0 4.0 10.0 3.0 8.0 7.0 0.0 9.0 2.0 1.0 7.0 1.0 1.0 6.0 6.0 9.0 1.0 5.0 5.0 7.0 10.0 10.0 2.0 7.0 8.0 8.0 5.0 2.0 4.0 10.0 5.0 1.0 9.0 4.0 5.0 1.0 9.0 0.0 2.0 6.0 7.0 7.0 -389.0 6.0 9.0 2.0 6.0 3.0 9.0 2.0 1.0 
6.0 8.0 1.0 10.0 8.0 5.0 3.0 1.0 7.0 0.0 6.0 6.0 0.0 1.0 5.0 1.0 1.0 10.0 0.0 10.0 10.0 8.0 4.0 9.0 5.0 10.0 3.0 9.0 10.0 6.0 1.0 2.0 4.0 3.0 2.0 0.0 7.0 4.0 10.0 9.0 1.0 3.0 8.0 8.0 6.0 5.0 8.0 9.0 0.0 6.0 0.0 6.0 2.0 9.0 0.0 10.0 6.0 6.0 2.0 1.0 5.0 9.0 6.0 3.0 6.0 5.0 2.0 6.0 -368.0 5.0 3.0 1.0 2.0 10.0 1.0 3.0 
2.0 0.0 5.0 1.0 5.0 2.0 7.0 6.0 10.0 0.0 10.0 2.0 4.0 4.0 4.0 7.0 4.0 5.0 1.0 7.0 8.0 5.0 6.0 3.0 7.0 7.0 9.0 1.0 7.0 9.0 5.0 1.0 4.0 7.0 4.0 9.0 1.0 2.0 9.0 7.0 4.0 9.0 2.0 8.0 3.0 5.0 7.0 5.0 4.0 5.0 3.0 5.0 10.0 7.0 7.0 10.0 2.0 0.0 5.0 10.0 0.0 9.0 3.0 7.0 8.0 9.0 4.0 9.0 5.0 -383.0 3.0 5.0 2.0 1.0 8.0 2.0 
7.0 0.0 5.0 5.0 2.0 7.0 7.0 1.0 4.0 7.0 3.0 6.0 0.0 0.0 6.0 4.0 4.0 0.0 7.0 8.0 1.0 8.0 5.0 8.0 6.0 0.0 1.0 10.0 1.0 7.0 7.0 6.0 3.0 3.0 5.0 8.0 5.0 6.0 10.0 9.0 2.0 9.0 4.0 7.0 8.0 6.0 0.0 6.0 2.0 5.0 0.0 10.0 2.0 3.0 5.0 4.0 2.0 4.0 10.0 9.0 5.0 8.0 3.0 6.0 0.0 8.0 6.0 2.0 3.0 3.0 -363.0 7.0 6.0 7.0 2.0 7.0 
5.0 0.0 4.0 6.0 1.0 5.0 5.0 0.0 1.0 9.0 1.0 7.0 1.0 10.0 0.0 10.0 8.0 2.0 0.0 1.0 0.0 10.0 9.0 7.0 9.0 10.0 2.0 6.0 5.0 8.0 7.0 9.0 2.0 3.0 6.0 6.0 6.0 5.0 8.0 5.0 9.0 1.0 4.0 5.0 10.0 8.0 2.0 1.0 8.0 8.0 2.0 9.0 10.0 10.0 8.0 0.0 6.0 8.0 3.0 6.0 10.0 8.0 8.0 10.0 7.0 6.0 8.0 6.0 1.0 5.0 7.0 -407.0 8.0 2.0 0.0 4.0 
8.0 0.0 10.0 6.0 7.0 9.0 6.0 6.0 8.0 8.0 10.0 7.0 3.0 6.0 8.0 0.0 10.0 9.0 4.0 9.0 2.0 7.0 7.0 2.0 0.0 8.0 10.0 4.0 3.0 6.0 0.0 1.0 7.0 10.0 5.0 4.0 10.0 6.0 2.0 10.0 7.0 6.0 1.0 1.0 4.0 6.0 3.0 9.0 7.0 8.0 1.0 1.0 6.0 2.0 10.0 6.0 9.0 5.0 9.0 5.0 9.0 0.0 7.0 8.0 1.0 6.0 7.0 3.0 2.0 2.0 6.0 8.0 -425.0 9.0 6.0 7.0 
10.0 0.0 3.0 4.0 0.0 7.0 4.0 6.0 1.0 5.0 8.0 5.0 9.0 2.0 0.0 0.0 6.0 5.0 3.0 6.0 2.0 7.0 6.0 4.0 0.0 7.0 3.0 0.0 3.0 1.0 8.0 6.0 4.0 4.0 5.0 5.0 10.0 9.0 2.0 3.0 4.0 6.0 10.0 0.0 6.0 5.0 9.0 0.0 10.0 10.0 4.0 5.0 8.0 10.0 10.0 5.0 1.0 4.0 8.0 1.0 0.0 5.0 2.0 2.0 0.0 3.0 7.0 9.0 10.0 1.0 7.0 2.0 9.0 -352.0 5.0 1.0 
0.0 0.0 2.0 3.0 7.0 7.0 9.0 2.0 7.0 10.0 5.0 3.0 0.0 5.0 10.0 7.0 2.0 1.0 6.0 7.0 0.0 5.0 0.0 4.0 10.0 5.0 10.0 7.0 6.0 5.0 5.0 2.0 6.0 3.0 0.0 8.0 2.0 5.0 0.0 6.0 6.0 4.0 4.0 6.0 6.0 1.0 8.0 8.0 0.0 0.0 6.0 4.0 8.0 9.0 2.0 10.0 6.0 6.0 9.0 1.0 7.0 0.0 7.0 10.0 5.0 3.0 2.0 2.0 1.0 8.0 2.0 0.0 6.0 5.0 -354.0 10.0 
0.0 0.0 10.0 7.0 5.0 0.0 0.0 0.0 8.0 2.0 0.0 2.0 8.0 10.0 9.0 2.0 8.0 9.0 10.0 0.0 7.0 0.0 10.0 2.0 4.0 0.0 1.0 7.0 7.0 9.0 3.0 4.0 6.0 8.0 0.0 1.0 1.0 9.0 2.0 6.0 6.0 8.0 6.0 2.0 7.0 3.0 0.0 5.0 10.0 9.0 9.0 10.0 6.0 9.0 3.0 10.0 0.0 0.0 7.0 4.0 10.0 0.0 4.0 8.0 10.0 2.0 7.0 1.0 3.0 2.0 7.0 4.0 7.0 1.0 10.0 -367.0 

